(set-logic HORN)
(set-info :source |
    Benchmark: C_VC
    Output by Princess (http://www.philipp.ruemmer.org/princess.shtml)
|)
(set-info :status unsat)
(declare-heap Heap Addr HeapObject
 defObj
 ((HeapObject 0)) (
  (
   (O_Int (getInt Int))
   (O_UInt (getUInt Int))
   (O_Addr (getAddr Addr))
   (defObj)
  )
))
(declare-fun inv_main14 (Heap Addr Int AddrRange Int Int Int Int) Bool)
(declare-fun inv_main15 (Heap Addr Int AddrRange Int Int Int Int) Bool)
(declare-fun inv_main17 (Heap Addr Int AddrRange Int Int Int Int) Bool)
(declare-fun inv_main19 (Heap Addr Int AddrRange Int Int Int Int Int) Bool)
(declare-fun inv_main20 (Heap Addr Int AddrRange Int Int Int Int) Bool)
(declare-fun inv_main22 (Heap Addr Int AddrRange Int Int Int Int) Bool)
(declare-fun inv_main23 (Heap Addr Int AddrRange Int Int Int Int Int) Bool)
(declare-fun inv_main3 (Heap Addr) Bool)
(assert (forall ((var0 Addr) (var1 Heap)) (or (not (= var1 emptyHeap)) (inv_main3 var1 var0))))
(assert (forall ((var0 Int) (var1 Int) (var2 Int) (var3 Int) (var4 Int) (var5 AddrRange) (var6 Int) (var7 Addr) (var8 Heap) (var9 Int) (var10 Int) (var11 Int) (var12 Int) (var13 AddrRange) (var14 Int) (var15 Addr) (var16 Heap)) (or (not (and (inv_main17 var16 var15 var14 var13 var12 var11 var10 var9) (and (is-O_Int (read var16 (nthAddrRange var13 (+ var10 (- 1))))) (and (and (and (and (and (and (and (and (= var8 var16) (= var7 var15)) (= var6 var14)) (= var5 var13)) (= var4 var12)) (= var3 var11)) (= var2 var10)) (= var1 var9)) (= var0 (getInt (read var16 (nthAddrRange var13 (+ var10 (- 1)))))))))) (inv_main20 var8 var7 var6 var5 var4 var3 var2 var0))))
(assert (forall ((var0 Int) (var1 Int) (var2 Int) (var3 Int) (var4 Int) (var5 AddrRange) (var6 Int) (var7 Addr) (var8 Heap)) (or (not (and (inv_main23 var8 var7 var6 var5 var4 var3 var2 var1 var0) (and (is-O_Int (read var8 (nthAddrRange var5 (+ var2 (- 1))))) (is-O_Int (read var8 (nthAddrRange var5 (+ var2 (- 1)))))))) (inv_main22 (write var8 (nthAddrRange var5 (+ var2 (- 1))) (O_Int var0)) var7 var6 var5 var4 var3 var2 var1))))
(assert (forall ((var0 Int) (var1 Int) (var2 Int) (var3 Int) (var4 AddrRange) (var5 Int) (var6 Addr) (var7 Heap)) (or (not (and (inv_main20 var7 var6 var5 var4 var3 var2 var1 var0) (is-O_Int (read var7 (nthAddrRange var4 var1))))) (inv_main23 var7 var6 var5 var4 var3 var2 var1 var0 (getInt (read var7 (nthAddrRange var4 var1)))))))
(assert (forall ((var0 Int) (var1 Int) (var2 Int) (var3 Int) (var4 AddrRange) (var5 Int) (var6 Addr) (var7 Heap)) (or (not (and (inv_main14 var7 var6 var5 var4 var3 var2 var1 var0) (<= 0 (+ var2 (* (- 1) var1))))) (inv_main15 var7 var6 var5 var4 var3 var2 var1 var0))))
(assert (forall ((var0 Int) (var1 Int) (var2 Int) (var3 Int) (var4 AddrRange) (var5 Int) (var6 Addr) (var7 Heap)) (or (not (and (inv_main15 var7 var6 var5 var4 var3 var2 var1 var0) (is-O_Int (read var7 (nthAddrRange var4 (+ var1 (- 1))))))) (inv_main19 var7 var6 var5 var4 var3 var2 var1 var0 (getInt (read var7 (nthAddrRange var4 (+ var1 (- 1)))))))))
(assert (forall ((var0 Int) (var1 Int) (var2 Int) (var3 Int) (var4 AddrRange) (var5 Int) (var6 Addr) (var7 Heap)) (or (not (and (inv_main14 var7 var6 var5 var4 var3 var2 var1 var0) (and (<= 0 (+ var2 (- 1))) (not (<= 0 (+ var2 (* (- 1) var1))))))) (inv_main14 var7 var6 var5 var4 var3 (+ var2 (- 1)) 1 var0))))
(assert (forall ((var0 Int) (var1 Int) (var2 Int) (var3 Int) (var4 AddrRange) (var5 Int) (var6 Addr) (var7 Heap) (var8 Int) (var9 Int) (var10 Int) (var11 Int) (var12 AddrRange) (var13 Int) (var14 Addr) (var15 Heap)) (or (not (and (inv_main22 var15 var14 var13 var12 var11 var10 var9 var8) (and (and (is-O_Int (read var15 (nthAddrRange var12 var9))) (is-O_Int (read var15 (nthAddrRange var12 var9)))) (and (and (and (and (and (and (and (= var7 (write var15 (nthAddrRange var12 var9) (O_Int var8))) (= var6 var14)) (= var5 var13)) (= var4 var12)) (= var3 var11)) (= var2 var10)) (= var1 var9)) (= var0 var8))))) (inv_main14 var7 var6 var5 var4 var3 var2 (+ var1 1) var0))))
(assert (forall ((var0 Int) (var1 Int) (var2 Int) (var3 Int) (var4 Int) (var5 AddrRange) (var6 Int) (var7 Addr) (var8 Heap)) (or (not (and (inv_main19 var8 var7 var6 var5 var4 var3 var2 var1 var0) (and (is-O_Int (read var8 (nthAddrRange var5 var2))) (not (<= 0 (+ (+ var0 (* (- 1) (getInt (read var8 (nthAddrRange var5 var2))))) (- 1))))))) (inv_main14 var8 var7 var6 var5 var4 var3 (+ var2 1) var1))))
(assert (forall ((var0 Int) (var1 Int) (var2 Addr) (var3 Heap)) (or (not (and (inv_main3 var3 var2) (<= 0 (+ var1 (- 1))))) (inv_main14 var3 var2 var1 var2 var1 (+ var1 (- 1)) 1 var0))))
(assert (forall ((var0 Int) (var1 Int) (var2 Int) (var3 Int) (var4 Int) (var5 AddrRange) (var6 Int) (var7 Addr) (var8 Heap)) (or (not (and (inv_main19 var8 var7 var6 var5 var4 var3 var2 var1 var0) (and (is-O_Int (read var8 (nthAddrRange var5 var2))) (<= 0 (+ (+ var0 (* (- 1) (getInt (read var8 (nthAddrRange var5 var2))))) (- 1)))))) (inv_main17 var8 var7 var6 var5 var4 var3 var2 var1))))
(assert (forall ((var0 Int) (var1 Int) (var2 Int) (var3 Int) (var4 AddrRange) (var5 Int) (var6 Addr) (var7 Heap)) (not (and (inv_main15 var7 var6 var5 var4 var3 var2 var1 var0) (not (is-O_Int (read var7 (nthAddrRange var4 (+ var1 (- 1))))))))))
(assert (forall ((var0 Int) (var1 Int) (var2 Int) (var3 Int) (var4 AddrRange) (var5 Int) (var6 Addr) (var7 Heap)) (not (and (inv_main15 var7 var6 var5 var4 var3 var2 var1 var0) (and (is-O_Int (read var7 (nthAddrRange var4 (+ var1 (- 1))))) (not (within var4 (nthAddrRange var4 (+ var1 (- 1))))))))))
(assert (forall ((var0 Int) (var1 Int) (var2 Int) (var3 Int) (var4 Int) (var5 AddrRange) (var6 Int) (var7 Addr) (var8 Heap)) (not (and (inv_main19 var8 var7 var6 var5 var4 var3 var2 var1 var0) (not (is-O_Int (read var8 (nthAddrRange var5 var2))))))))
(assert (forall ((var0 Int) (var1 Int) (var2 Int) (var3 Int) (var4 Int) (var5 AddrRange) (var6 Int) (var7 Addr) (var8 Heap)) (not (and (inv_main19 var8 var7 var6 var5 var4 var3 var2 var1 var0) (and (is-O_Int (read var8 (nthAddrRange var5 var2))) (not (within var5 (nthAddrRange var5 var2))))))))
(assert (forall ((var0 Int) (var1 Int) (var2 Int) (var3 Int) (var4 AddrRange) (var5 Int) (var6 Addr) (var7 Heap)) (not (and (inv_main17 var7 var6 var5 var4 var3 var2 var1 var0) (not (is-O_Int (read var7 (nthAddrRange var4 (+ var1 (- 1))))))))))
(assert (forall ((var0 Int) (var1 Int) (var2 Int) (var3 Int) (var4 AddrRange) (var5 Int) (var6 Addr) (var7 Heap)) (not (and (inv_main17 var7 var6 var5 var4 var3 var2 var1 var0) (and (is-O_Int (read var7 (nthAddrRange var4 (+ var1 (- 1))))) (not (within var4 (nthAddrRange var4 (+ var1 (- 1))))))))))
(assert (forall ((var0 Int) (var1 Int) (var2 Int) (var3 Int) (var4 AddrRange) (var5 Int) (var6 Addr) (var7 Heap)) (not (and (inv_main20 var7 var6 var5 var4 var3 var2 var1 var0) (not (is-O_Int (read var7 (nthAddrRange var4 var1))))))))
(assert (forall ((var0 Int) (var1 Int) (var2 Int) (var3 Int) (var4 AddrRange) (var5 Int) (var6 Addr) (var7 Heap)) (not (and (inv_main20 var7 var6 var5 var4 var3 var2 var1 var0) (and (is-O_Int (read var7 (nthAddrRange var4 var1))) (not (within var4 (nthAddrRange var4 var1))))))))
(assert (forall ((var0 Int) (var1 Int) (var2 Int) (var3 Int) (var4 Int) (var5 AddrRange) (var6 Int) (var7 Addr) (var8 Heap)) (not (and (inv_main23 var8 var7 var6 var5 var4 var3 var2 var1 var0) (not (is-O_Int (read var8 (nthAddrRange var5 (+ var2 (- 1))))))))))
(assert (forall ((var0 Int) (var1 Int) (var2 Int) (var3 Int) (var4 Int) (var5 AddrRange) (var6 Int) (var7 Addr) (var8 Heap)) (not (and (inv_main23 var8 var7 var6 var5 var4 var3 var2 var1 var0) (and (is-O_Int (read var8 (nthAddrRange var5 (+ var2 (- 1))))) (not (within var5 (nthAddrRange var5 (+ var2 (- 1))))))))))
(assert (forall ((var0 Int) (var1 Int) (var2 Int) (var3 Int) (var4 Int) (var5 AddrRange) (var6 Int) (var7 Addr) (var8 Heap)) (not (and (inv_main23 var8 var7 var6 var5 var4 var3 var2 var1 var0) (and (is-O_Int (read var8 (nthAddrRange var5 (+ var2 (- 1))))) (not (is-O_Int (read var8 (nthAddrRange var5 (+ var2 (- 1)))))))))))
(assert (forall ((var0 Int) (var1 Int) (var2 Int) (var3 Int) (var4 AddrRange) (var5 Int) (var6 Addr) (var7 Heap)) (not (and (inv_main22 var7 var6 var5 var4 var3 var2 var1 var0) (not (is-O_Int (read var7 (nthAddrRange var4 var1))))))))
(assert (forall ((var0 Int) (var1 Int) (var2 Int) (var3 Int) (var4 AddrRange) (var5 Int) (var6 Addr) (var7 Heap)) (not (and (inv_main22 var7 var6 var5 var4 var3 var2 var1 var0) (and (is-O_Int (read var7 (nthAddrRange var4 var1))) (not (within var4 (nthAddrRange var4 var1))))))))
(assert (forall ((var0 Int) (var1 Int) (var2 Int) (var3 Int) (var4 AddrRange) (var5 Int) (var6 Addr) (var7 Heap)) (not (and (inv_main22 var7 var6 var5 var4 var3 var2 var1 var0) (and (is-O_Int (read var7 (nthAddrRange var4 var1))) (not (is-O_Int (read var7 (nthAddrRange var4 var1)))))))))
(check-sat)
